c Instancia generada aleatoriamente
p edge 40 75
e 1 12
e 1 27
e 2 4
e 2 7
e 2 16
e 2 35
e 2 36
e 3 14
e 3 19
e 3 30
e 5 9
e 5 24
e 6 33
e 6 39
e 7 24
e 7 28
e 7 38
e 8 28
e 8 36
e 9 13
e 9 16
e 9 17
e 9 30
e 9 33
e 10 31
e 10 36
e 11 28
e 11 29
e 11 32
e 11 35
e 11 36
e 11 37
e 11 40
e 12 24
e 12 35
e 13 24
e 13 31
e 14 18
e 14 24
e 14 25
e 14 34
e 14 38
e 15 21
e 16 23
e 17 39
e 18 28
e 19 21
e 19 27
e 20 25
e 20 33
e 21 24
e 21 27
e 21 36
e 21 37
e 22 25
e 22 37
e 24 25
e 24 37
e 24 38
e 25 26
e 25 29
e 26 34
e 27 28
e 27 35
e 27 40
e 29 30
e 29 32
e 29 34
e 30 33
e 30 38
e 31 35
e 34 35
e 34 40
e 35 36
e 35 40
